cost: 1133.06
Route 1:           0    6   96   99   59   93   85   16   61   84    5   60   89    0
Route 2:           0   12   80   68   29   24   54   55   25   39   67   23   56    4   26    0
Route 3:           0   27   69    1   50   33   81    9   51   20   30   70   10   11   19   62   88   31    0
Route 4:           0   28   76   77    3   79   78   34   35   71   65   66   32   90   63   64   49   36   47   48   82    7   52    0
Route 5:           0   53   58   13   87   42   43   15   57    2   41   22   75   74   72   73   21   40    0
Route 6:           0   94   95   97   92   37   98  100   91   44   14   38   86   17   45   46    8   83   18    0
